(set-logic ALL)
(set-option :produce-models true)
(declare-sort BoundSet 0)
(declare-sort UnboundSet 0)
(declare-fun HasBackpack (BoundSet) Bool)
(declare-fun IsAt (BoundSet BoundSet) Bool)
(assert (not (=> (exists ((a BoundSet)) (exists ((b BoundSet)) (and (HasBackpack b) (IsAt b a)))) (exists ((a BoundSet)) (exists ((c BoundSet)) (IsAt c a))))))
(check-sat)
(get-model)